LengthSchedulingHorizon=984;
nAttributes=2;
SetupCosts=[[0, 0], [8, 20], [19, 8]];
SetupTimes=[[0, 0], [12, 16], [15, 10]];
nMachines=5;
MinCap=[0, 0, 0, 0, 0];
MaxCap=[66, 95, 70, 61, 71];

initState=[1, 1, 1, 1, 2];
nShifts=5;
ShiftStartTimes = [[0, 0, 0, 0, 106], [0, 0, 0, 0, 118], [0, 0, 0, 50, 546], [114, 352, 572, 779, 901], [0, 0, 0, 69, 770]];
ShiftEndTimes = [[0, 0, 0, 0, 950], [0, 0, 0, 0, 928], [0, 0, 0, 506, 942], [302, 552, 743, 877, 966], [0, 0, 0, 742, 934]];
nJobs=10;
EligibleMachines = [{1, 3, 4, 5}, {2, 3, 4}, {1, 2, 3, 4, 5}, {1, 2}, {1, 2, 3}, {4, 5}, {1, 2, 3, 5}, {1, 3, 4, 5}, {1, 3, 4, 5}, {1, 2, 4}];
EarliestStart=[5, 20, 40, 9, 29, 53, 0, 32, 30, 11];
LatestEnd=[89, 106, 169, 36, 122, 60, 133, 138, 104, 74];
MinTime=[59, 62, 87, 20, 50, 6, 68, 100, 43, 43];
MaxTime=[100, 100, 100, 100, 100, 100, 100, 100, 100, 100];
JobSize=[17, 19, 16, 20, 14, 9, 9, 2, 13, 16];
Attribute=[2, 1, 1, 1, 2, 1, 2, 2, 2, 1];

upper_bound_integer_objective=2268000;
mult_factor_total_runtime=160;
mult_factor_finished_toolate=216000;
mult_factor_total_setuptimes=0;
mult_factor_total_setupcosts=108;
running_time_bound=538;
min_duration=6;
max_duration=100;
max_setup_time=16;
max_setup_cost=20;
